&CONTROL
  calculation = 'bands'
  etot_conv_thr =   4.0000000000d-05
  forc_conv_thr =   1.0000000000d-04
  outdir = './'
  prefix = 'SnS'
  pseudo_dir = './'
  tprnfor = .true.
  tstress = .true.
  verbosity = 'high'
/
&SYSTEM
  degauss =   1.4699723600d-02
  ecutrho =   4.8000000000d+02
  ecutwfc =   6.0000000000d+01
  ibrav = 0
  nat = 4
  nosym = .false.
  ntyp = 2
  occupations = 'smearing'
  smearing = 'cold'
  !SOC
  noncolin = .TRUE.
  lspinorb = .TRUE.

/
&ELECTRONS
  conv_thr =   8.0000000000d-10
  electron_maxstep = 80
  mixing_beta =   4.0000000000d-01
/
ATOMIC_SPECIES
S      32.065 s_pbesol_v1.4.uspp.F.UPF
Sn     118.71 sn_pbesol_v1.4.uspp.F.UPF
ATOMIC_POSITIONS crystal
Sn           0.2500000001       0.3896259258       0.3591248664 
Sn           0.7500000000       0.8896260449       0.4983240691 
S            0.7500000000       0.9644830039       0.3725646789 
S            0.2500000001       0.4644829442       0.4848842566 
CELL_PARAMETERS angstrom
      4.0812239826       0.0000000000       0.0000000000
      0.0000000000       4.2838304353       0.0000000000
      0.0000000000       0.0000000000      20.4498801562
K_POINTS  {crystal_b}
5
  0.0000000000 0.0000000000 0.0000000000 20 !G
  0.5000000000 0.0000000000 0.0000000000 20 !X
  0.5000000000 0.5000000000 0.0000000000 20 !S
  0.0000000000 0.5000000000 0.0000000000 20 !Y
  0.0000000000 0.0000000000 0.0000000000 20 !G

